Li9 Mn3 Co3 Ni3 O18
1.0
5.009100 0.000000 0.000000
-2.504550 4.338008 0.000000
0.000000 0.000000 14.301600
Li Mn Co Ni O
9 3 3 3 18
direct
0.111040 0.222090 0.166670 Li
0.777910 0.888950 0.500003 Li
0.111050 0.888960 0.833337 Li
0.110890 0.555450 0.500000 Li
0.444550 0.555440 0.833333 Li
0.444560 0.889110 0.166667 Li
0.444800 0.222400 0.500000 Li
0.777600 0.222400 0.833333 Li
0.777600 0.555200 0.166667 Li
0.111110 0.222220 0.666667 Mn
0.777780 0.888890 0.000000 Mn
0.111110 0.888890 0.333333 Mn
0.444440 0.222220 0.000000 Co
0.777780 0.222220 0.333333 Co
0.777780 0.555560 0.666667 Co
0.112750 0.556370 0.000000 Ni
0.443630 0.556380 0.333333 Ni
0.443620 0.887250 0.666667 Ni
0.111110 0.222220 0.924250 O
0.777780 0.888890 0.257583 O
0.111110 0.888890 0.590917 O
0.777780 0.888890 0.742417 O
0.111110 0.222220 0.409083 O
0.111110 0.888890 0.075750 O
0.111110 0.555560 0.742420 O
0.444440 0.555550 0.075753 O
0.444450 0.888890 0.409087 O
0.444440 0.888890 0.924247 O
0.444450 0.555560 0.590913 O
0.111110 0.555550 0.257580 O
0.444440 0.222220 0.742420 O
0.777780 0.222220 0.075753 O
0.777780 0.555560 0.409087 O
0.777780 0.555560 0.924247 O
0.777780 0.222220 0.590913 O
0.444440 0.222220 0.257580 O
