W9 S18
1.0
9.547052 0.000000 0.000000
-4.773526 8.267990 0.000000
0.000000 0.000000 19.986961
W S
9 18
direct
0.222222 0.111111 0.500000 W
0.555556 0.111111 0.500000 W
0.888889 0.111111 0.500000 W
0.222222 0.444444 0.500000 W
0.555556 0.444444 0.500000 W
0.888889 0.444444 0.500000 W
0.222222 0.777778 0.500000 W
0.555556 0.777778 0.500000 W
0.888889 0.777778 0.500000 W
0.111111 0.222222 0.421534 S
0.111111 0.222222 0.578466 S
0.444444 0.222222 0.421534 S
0.444444 0.222222 0.578466 S
0.777778 0.222222 0.421534 S
0.777778 0.222222 0.578466 S
0.111111 0.555556 0.421534 S
0.111111 0.555556 0.578466 S
0.444444 0.555556 0.421534 S
0.444444 0.555556 0.578466 S
0.777778 0.555556 0.421534 S
0.777778 0.555556 0.578466 S
0.111111 0.888889 0.421534 S
0.111111 0.888889 0.578466 S
0.444444 0.888889 0.421534 S
0.444444 0.888889 0.578466 S
0.777778 0.888889 0.421534 S
0.777778 0.888889 0.578466 S
