Fe32 H40 O68
1.0
10.497100 0.000000 0.000000
0.000000 6.131700 0.000000
0.000000 0.000000 37.317700
Fe H O
32 40 68
direct
0.819400 0.261640 0.141200 Fe
0.819400 0.261640 0.422490 Fe
0.111170 0.261640 0.224240 Fe
0.111170 0.261640 0.505530 Fe
0.317670 0.261640 0.083110 Fe
0.317670 0.261640 0.364400 Fe
0.612900 0.261640 0.282330 Fe
0.612900 0.261640 0.563620 Fe
0.819400 0.761640 0.141200 Fe
0.819400 0.761640 0.422490 Fe
0.111170 0.761640 0.224240 Fe
0.111170 0.761640 0.505530 Fe
0.317670 0.761640 0.083110 Fe
0.317670 0.761640 0.364400 Fe
0.612900 0.761640 0.282330 Fe
0.612900 0.761640 0.563620 Fe
0.319400 0.011640 0.281840 Fe
0.319400 0.011640 0.563130 Fe
0.611170 0.011640 0.083590 Fe
0.611170 0.011640 0.364880 Fe
0.817670 0.011640 0.223750 Fe
0.817670 0.011640 0.505040 Fe
0.112900 0.011640 0.141680 Fe
0.112900 0.011640 0.422970 Fe
0.319400 0.511640 0.281840 Fe
0.319400 0.511640 0.563130 Fe
0.611170 0.511640 0.083590 Fe
0.611170 0.511640 0.364880 Fe
0.817670 0.511640 0.223750 Fe
0.817670 0.511640 0.505040 Fe
0.112900 0.511640 0.141680 Fe
0.112900 0.511640 0.422970 Fe
0.383000 0.261640 0.226660 H
0.383000 0.261640 0.507950 H
0.883000 0.011640 0.086010 H
0.883000 0.011640 0.367300 H
0.547580 0.261640 0.138780 H
0.547580 0.261640 0.420070 H
0.047580 0.011640 0.279420 H
0.047580 0.011640 0.560710 H
0.621500 0.261640 0.205860 H
0.621500 0.261640 0.487150 H
0.121500 0.011640 0.065220 H
0.121500 0.011640 0.346510 H
0.309070 0.261640 0.159570 H
0.309070 0.261640 0.440860 H
0.809070 0.011640 0.300220 H
0.809070 0.011640 0.581510 H
0.234130 0.132360 0.605740 H
0.718500 0.175840 0.624840 H
0.199440 0.202520 0.026800 H
0.722680 0.174780 0.044940 H
0.383000 0.761640 0.226660 H
0.383000 0.761640 0.507950 H
0.883000 0.511640 0.086010 H
0.883000 0.511640 0.367300 H
0.547580 0.761640 0.138780 H
0.547580 0.761640 0.420070 H
0.047580 0.511640 0.279420 H
0.047580 0.511640 0.560710 H
0.621500 0.761640 0.205860 H
0.621500 0.761640 0.487150 H
0.121500 0.511640 0.065220 H
0.121500 0.511640 0.346510 H
0.309070 0.761640 0.159570 H
0.309070 0.761640 0.440860 H
0.809070 0.511640 0.300220 H
0.809070 0.511640 0.581510 H
0.234130 0.632360 0.605740 H
0.718500 0.675840 0.624840 H
0.199440 0.702520 0.026800 H
0.722680 0.674780 0.044940 H
0.623710 0.261640 0.124040 O
0.623710 0.261640 0.405330 O
0.633160 0.261640 0.051790 O
0.633160 0.261640 0.333080 O
0.633160 0.261640 0.614370 O
0.123710 0.011640 0.264680 O
0.123710 0.011640 0.545970 O
0.133160 0.011640 0.192430 O
0.133160 0.011640 0.473720 O
0.306870 0.261640 0.241400 O
0.306870 0.261640 0.522690 O
0.297420 0.261640 0.032360 O
0.297420 0.261640 0.313650 O
0.297420 0.261640 0.594940 O
0.806870 0.011640 0.100750 O
0.806870 0.011640 0.382040 O
0.797420 0.011640 0.173000 O
0.797420 0.011640 0.454290 O
0.256670 0.261640 0.138160 O
0.256670 0.261640 0.419450 O
0.999830 0.261640 0.135500 O
0.999830 0.261640 0.416790 O
0.756670 0.011640 0.278800 O
0.756670 0.011640 0.560090 O
0.499830 0.011640 0.276140 O
0.499830 0.011640 0.557430 O
0.673900 0.261640 0.227280 O
0.673900 0.261640 0.508570 O
0.930740 0.261640 0.229940 O
0.930740 0.261640 0.511230 O
0.173900 0.011640 0.086640 O
0.173900 0.011640 0.367930 O
0.430740 0.011640 0.089290 O
0.430740 0.011640 0.370580 O
0.623710 0.761640 0.124040 O
0.623710 0.761640 0.405330 O
0.633160 0.761640 0.051790 O
0.633160 0.761640 0.333080 O
0.633160 0.761640 0.614370 O
0.123710 0.511640 0.264680 O
0.123710 0.511640 0.545970 O
0.133160 0.511640 0.192430 O
0.133160 0.511640 0.473720 O
0.306870 0.761640 0.241400 O
0.306870 0.761640 0.522690 O
0.297420 0.761640 0.032360 O
0.297420 0.761640 0.313650 O
0.297420 0.761640 0.594940 O
0.806870 0.511640 0.100750 O
0.806870 0.511640 0.382040 O
0.797420 0.511640 0.173000 O
0.797420 0.511640 0.454290 O
0.256670 0.761640 0.138160 O
0.256670 0.761640 0.419450 O
0.999830 0.761640 0.135500 O
0.999830 0.761640 0.416790 O
0.756670 0.511640 0.278800 O
0.756670 0.511640 0.560090 O
0.499830 0.511640 0.276140 O
0.499830 0.511640 0.557430 O
0.673900 0.761640 0.227280 O
0.673900 0.761640 0.508570 O
0.930740 0.761640 0.229940 O
0.930740 0.761640 0.511230 O
0.173900 0.511640 0.086640 O
0.173900 0.511640 0.367930 O
0.430740 0.511640 0.089290 O
0.430740 0.511640 0.370580 O
