c00003_poscar
0
Monkhorst-Pack
1 2 2
0 0 0
