Li24 P4 S20 Cl4
1.0
14.168600 0.000000 0.000000
0.000000 7.173400 0.000000
0.000000 0.000000 9.857000
Li P S Cl
24 4 20 4
direct
0.320730 0.243180 0.192130 Li
0.679270 0.756820 0.692130 Li
0.820730 0.256820 0.192130 Li
0.179270 0.743180 0.692130 Li
0.026450 0.171680 0.331390 Li
0.973550 0.828320 0.831390 Li
0.526450 0.328320 0.331390 Li
0.473550 0.671680 0.831390 Li
0.109110 0.049260 0.020140 Li
0.890890 0.950740 0.520140 Li
0.609110 0.450740 0.020140 Li
0.390890 0.549260 0.520140 Li
0.042700 0.445400 0.983640 Li
0.957300 0.554600 0.483640 Li
0.542700 0.054600 0.983640 Li
0.457300 0.945400 0.483640 Li
0.217310 0.394120 0.382650 Li
0.782690 0.605880 0.882650 Li
0.717310 0.105880 0.382650 Li
0.282690 0.894120 0.882650 Li
0.127750 0.646470 0.171040 Li
0.872250 0.353530 0.671040 Li
0.627750 0.853530 0.171040 Li
0.372250 0.146470 0.671040 Li
0.114700 0.231870 0.684840 P
0.885300 0.768130 0.184840 P
0.614700 0.268130 0.684840 P
0.385300 0.731870 0.184840 P
0.267670 0.720420 0.304860 S
0.732330 0.279580 0.804860 S
0.767670 0.779580 0.304860 S
0.232330 0.220420 0.804860 S
0.395230 0.510970 0.051970 S
0.604770 0.489030 0.551970 S
0.895230 0.989030 0.051970 S
0.104770 0.010970 0.551970 S
0.385960 0.974100 0.071650 S
0.614040 0.025900 0.571650 S
0.885960 0.525900 0.071650 S
0.114040 0.474100 0.571650 S
0.999210 0.212260 0.810950 S
0.000790 0.787740 0.310950 S
0.499210 0.287740 0.810950 S
0.500790 0.712260 0.310950 S
0.369180 0.236970 0.430190 S
0.630820 0.763030 0.930190 S
0.869180 0.263030 0.430190 S
0.855640 0.695700 0.668300 S
0.130820 0.736970 0.930190 Cl
0.144360 0.304300 0.168300 Cl
0.644360 0.195700 0.168300 Cl
0.355640 0.804300 0.668300 Cl
