Cl4Li24P4S20-6
1.0
   10.2795000000000    0.0000000000000    0.0000000000000
    0.0000000000000   10.2795000000000    0.0000000000000
    0.0000000000000    0.0000000000000   10.2795000000000
Cl  Li  P   S  
  4  24   4  20
Direct
  0.50000000   0.50000000   0.50000000
  0.00000000   0.00000000   0.50000000
  0.00000000   0.50000000   0.00000000
  0.50000000   0.00000000   0.00000000
  0.02311000   0.25000000   0.75000000
  0.52311000   0.25000000   0.25000000
  0.97689000   0.75000000   0.75000000
  0.47689000   0.75000000   0.25000000
  0.97689000   0.25000000   0.25000000
  0.47689000   0.25000000   0.75000000
  0.02311000   0.75000000   0.25000000
  0.52311000   0.75000000   0.75000000
  0.75000000   0.02311000   0.25000000
  0.75000000   0.52311000   0.75000000
  0.75000000   0.97689000   0.75000000
  0.75000000   0.47689000   0.25000000
  0.25000000   0.97689000   0.25000000
  0.25000000   0.47689000   0.75000000
  0.25000000   0.02311000   0.75000000
  0.25000000   0.52311000   0.25000000
  0.25000000   0.75000000   0.02311000
  0.25000000   0.25000000   0.52311000
  0.75000000   0.75000000   0.97689000
  0.75000000   0.25000000   0.47689000
  0.25000000   0.25000000   0.97689000
  0.25000000   0.75000000   0.47689000
  0.75000000   0.25000000   0.02311000
  0.75000000   0.75000000   0.52311000
  0.00000000   0.00000000   0.00000000
  0.00000000   0.50000000   0.50000000
  0.50000000   0.00000000   0.50000000
  0.50000000   0.50000000   0.00000000
  0.11552000   0.11552000   0.11552000
  0.11552000   0.61552000   0.61552000
  0.61552000   0.11552000   0.61552000
  0.61552000   0.61552000   0.11552000
  0.88448000   0.88448000   0.11552000
  0.88448000   0.38448000   0.61552000
  0.38448000   0.88448000   0.61552000
  0.38448000   0.38448000   0.11552000
  0.88448000   0.11552000   0.88448000
  0.88448000   0.61552000   0.38448000
  0.38448000   0.11552000   0.38448000
  0.38448000   0.61552000   0.88448000
  0.11552000   0.88448000   0.88448000
  0.11552000   0.38448000   0.38448000
  0.61552000   0.88448000   0.38448000
  0.61552000   0.38448000   0.88448000
  0.25000000   0.25000000   0.75000000
  0.75000000   0.75000000   0.75000000
  0.25000000   0.75000000   0.25000000
  0.75000000   0.25000000   0.25000000
